6156.0
0 1 1 0 0 1 0 0 1 1 1 1 1 0 1 0 0 0 0 0 0 1 0 0 0 0 0 0 1 0 
10 10 10 10 10 10 10 1 1 1 1 11 11 11 11 2 2 2 2 2 2 5 5 5 5 5 5 8 8 8 8 9 9 9 10 2 2 5 2 28 28 12 2 28 2 26 26 26 26 28 10 26 8 11 2 26 26 28 12 26 12 12 28 28 26 26 26 26 1 12 